instances/knapsack/knapsack_interdiction/knapsack_20_10_3.mps
* Signature: 0x1f0222644a54f0fc
NAME knapsack_20_10_3
ROWS
 N  OBJ
 L  primal_upper
 L  primal_lower0
 L  primal_lower1
 L  primal_lower2
 L  primal_lower3
 L  primal_lower4
 L  primal_lower5
 L  primal_lower6
 L  primal_lower7
 L  primal_lower8
 L  primal_lower9
 L  interdiction[0]
 L  interdiction[1]
 L  interdiction[2]
 L  interdiction[3]
 L  interdiction[4]
 L  interdiction[5]
 L  interdiction[6]
 L  interdiction[7]
 L  interdiction[8]
 L  interdiction[9]
 L  interdiction[10]
 L  interdiction[11]
 L  interdiction[12]
 L  interdiction[13]
 L  interdiction[14]
 L  interdiction[15]
 L  interdiction[16]
 L  interdiction[17]
 L  interdiction[18]
 L  interdiction[19]
 L  mccormick1[0]
 L  mccormick1[1]
 L  mccormick1[2]
 L  mccormick1[3]
 L  mccormick1[4]
 L  mccormick1[5]
 L  mccormick1[6]
 L  mccormick1[7]
 L  mccormick1[8]
 L  mccormick1[9]
 L  mccormick1[10]
 L  mccormick1[11]
 L  mccormick1[12]
 L  mccormick1[13]
 L  mccormick1[14]
 L  mccormick1[15]
 L  mccormick1[16]
 L  mccormick1[17]
 L  mccormick1[18]
 L  mccormick1[19]
 L  mccormick2[0]
 L  mccormick2[1]
 L  mccormick2[2]
 L  mccormick2[3]
 L  mccormick2[4]
 L  mccormick2[5]
 L  mccormick2[6]
 L  mccormick2[7]
 L  mccormick2[8]
 L  mccormick2[9]
 L  mccormick2[10]
 L  mccormick2[11]
 L  mccormick2[12]
 L  mccormick2[13]
 L  mccormick2[14]
 L  mccormick2[15]
 L  mccormick2[16]
 L  mccormick2[17]
 L  mccormick2[18]
 L  mccormick2[19]
 L  mccormick3[0]
 L  mccormick3[1]
 L  mccormick3[2]
 L  mccormick3[3]
 L  mccormick3[4]
 L  mccormick3[5]
 L  mccormick3[6]
 L  mccormick3[7]
 L  mccormick3[8]
 L  mccormick3[9]
 L  mccormick3[10]
 L  mccormick3[11]
 L  mccormick3[12]
 L  mccormick3[13]
 L  mccormick3[14]
 L  mccormick3[15]
 L  mccormick3[16]
 L  mccormick3[17]
 L  mccormick3[18]
 L  mccormick3[19]
COLUMNS
    MARKER    'MARKER'                 'INTORG'
    x[0]      OBJ       29.01
    x[0]      interdiction[0]  1
    x[1]      OBJ       63.58
    x[1]      interdiction[1]  1
    x[2]      OBJ       76.71
    x[2]      interdiction[2]  1
    x[3]      OBJ       128.37
    x[3]      interdiction[3]  1
    x[4]      OBJ       157.35
    x[4]      interdiction[4]  1
    x[5]      OBJ       37.8
    x[5]      interdiction[5]  1
    x[6]      OBJ       15.78
    x[6]      interdiction[6]  1
    x[7]      OBJ       52.77
    x[7]      interdiction[7]  1
    x[8]      OBJ       182.64
    x[8]      interdiction[8]  1
    x[9]      OBJ       144.7
    x[9]      interdiction[9]  1
    x[10]     OBJ       133.09
    x[10]     interdiction[10]  1
    x[11]     OBJ       24.32
    x[11]     interdiction[11]  1
    x[12]     OBJ       57.02
    x[12]     interdiction[12]  1
    x[13]     OBJ       21.36
    x[13]     interdiction[13]  1
    x[14]     OBJ       85.94
    x[14]     interdiction[14]  1
    x[15]     OBJ       113.57
    x[15]     interdiction[15]  1
    x[16]     OBJ       15.85
    x[16]     interdiction[16]  1
    x[17]     OBJ       121.3
    x[17]     interdiction[17]  1
    x[18]     OBJ       92.96
    x[18]     interdiction[18]  1
    x[19]     OBJ       27.1
    x[19]     interdiction[19]  1
    y[0]      OBJ       -260
    y[0]      primal_upper  160
    y[0]      mccormick2[0]  -1
    y[0]      mccormick3[0]  1
    y[1]      OBJ       -370
    y[1]      primal_upper  270
    y[1]      mccormick2[1]  -1
    y[1]      mccormick3[1]  1
    y[2]      OBJ       -440
    y[2]      primal_upper  340
    y[2]      mccormick2[2]  -1
    y[2]      mccormick3[2]  1
    y[3]      OBJ       -899
    y[3]      primal_upper  799
    y[3]      mccormick2[3]  -1
    y[3]      mccormick3[3]  1
    y[4]      OBJ       -1070
    y[4]      primal_upper  970
    y[4]      mccormick2[4]  -1
    y[4]      mccormick3[4]  1
    y[5]      OBJ       -300
    y[5]      primal_upper  200
    y[5]      mccormick2[5]  -1
    y[5]      mccormick3[5]  1
    y[6]      OBJ       -143
    y[6]      primal_upper  43
    y[6]      mccormick2[6]  -1
    y[6]      mccormick3[6]  1
    y[7]      OBJ       -416
    y[7]      primal_upper  316
    y[7]      mccormick2[7]  -1
    y[7]      mccormick3[7]  1
    y[8]      OBJ       -1032
    y[8]      primal_upper  932
    y[8]      mccormick2[8]  -1
    y[8]      mccormick3[8]  1
    y[9]      OBJ       -830
    y[9]      primal_upper  730
    y[9]      mccormick2[9]  -1
    y[9]      mccormick3[9]  1
    y[10]     OBJ       -846
    y[10]     primal_upper  746
    y[10]     mccormick2[10]  -1
    y[10]     mccormick3[10]  1
    y[11]     OBJ       -229
    y[11]     primal_upper  129
    y[11]     mccormick2[11]  -1
    y[11]     mccormick3[11]  1
    y[12]     OBJ       -449
    y[12]     primal_upper  349
    y[12]     mccormick2[12]  -1
    y[12]     mccormick3[12]  1
    y[13]     OBJ       -166
    y[13]     primal_upper  66
    y[13]     mccormick2[13]  -1
    y[13]     mccormick3[13]  1
    y[14]     OBJ       -504
    y[14]     primal_upper  404
    y[14]     mccormick2[14]  -1
    y[14]     mccormick3[14]  1
    y[15]     OBJ       -872
    y[15]     primal_upper  772
    y[15]     mccormick2[15]  -1
    y[15]     mccormick3[15]  1
    y[16]     OBJ       -105
    y[16]     primal_upper  5
    y[16]     mccormick2[16]  -1
    y[16]     mccormick3[16]  1
    y[17]     OBJ       -939
    y[17]     primal_upper  839
    y[17]     mccormick2[17]  -1
    y[17]     mccormick3[17]  1
    y[18]     OBJ       -606
    y[18]     primal_upper  506
    y[18]     mccormick2[18]  -1
    y[18]     mccormick3[18]  1
    y[19]     OBJ       -271
    y[19]     primal_upper  171
    y[19]     mccormick2[19]  -1
    y[19]     mccormick3[19]  1
    u[0]      primal_lower0  118
    u[0]      primal_lower1  492
    u[0]      primal_lower2  656
    u[0]      primal_lower3  64
    u[0]      primal_lower4  781
    u[0]      primal_lower5  738
    u[0]      primal_lower6  306
    u[0]      primal_lower7  949
    u[0]      primal_lower8  876
    u[0]      primal_lower9  187
    u[0]      interdiction[0]  1
    u[0]      mccormick1[0]  -1
    u[0]      mccormick3[0]  1
    u[1]      primal_lower0  323
    u[1]      primal_lower1  138
    u[1]      primal_lower2  590
    u[1]      primal_lower3  862
    u[1]      primal_lower4  942
    u[1]      primal_lower5  175
    u[1]      primal_lower6  384
    u[1]      primal_lower7  983
    u[1]      primal_lower8  457
    u[1]      primal_lower9  597
    u[1]      interdiction[1]  1
    u[1]      mccormick1[1]  -1
    u[1]      mccormick3[1]  1
    u[2]      primal_lower0  55
    u[2]      primal_lower1  304
    u[2]      primal_lower2  4
    u[2]      primal_lower3  380
    u[2]      primal_lower4  70
    u[2]      primal_lower5  683
    u[2]      primal_lower6  118
    u[2]      primal_lower7  689
    u[2]      primal_lower8  461
    u[2]      primal_lower9  487
    u[2]      interdiction[2]  1
    u[2]      mccormick1[2]  -1
    u[2]      mccormick3[2]  1
    u[3]      primal_lower0  823
    u[3]      primal_lower1  315
    u[3]      primal_lower2  103
    u[3]      primal_lower3  151
    u[3]      primal_lower4  314
    u[3]      primal_lower5  203
    u[3]      primal_lower6  761
    u[3]      primal_lower7  648
    u[3]      primal_lower8  845
    u[3]      primal_lower9  374
    u[3]      interdiction[3]  1
    u[3]      mccormick1[3]  -1
    u[3]      mccormick3[3]  1
    u[4]      primal_lower0  393
    u[4]      primal_lower1  974
    u[4]      primal_lower2  410
    u[4]      primal_lower3  626
    u[4]      primal_lower4  392
    u[4]      primal_lower5  597
    u[4]      primal_lower6  188
    u[4]      primal_lower7  687
    u[4]      primal_lower8  975
    u[4]      primal_lower9  885
    u[4]      interdiction[4]  1
    u[4]      mccormick1[4]  -1
    u[4]      mccormick3[4]  1
    u[5]      primal_lower0  757
    u[5]      primal_lower1  988
    u[5]      primal_lower2  544
    u[5]      primal_lower3  440
    u[5]      primal_lower4  616
    u[5]      primal_lower5  33
    u[5]      primal_lower6  826
    u[5]      primal_lower7  305
    u[5]      primal_lower8  67
    u[5]      primal_lower9  511
    u[5]      interdiction[5]  1
    u[5]      mccormick1[5]  -1
    u[5]      mccormick3[5]  1
    u[6]      primal_lower0  934
    u[6]      primal_lower1  575
    u[6]      primal_lower2  667
    u[6]      primal_lower3  243
    u[6]      primal_lower4  853
    u[6]      primal_lower5  954
    u[6]      primal_lower6  261
    u[6]      primal_lower7  352
    u[6]      primal_lower8  436
    u[6]      primal_lower9  294
    u[6]      interdiction[6]  1
    u[6]      mccormick1[6]  -1
    u[6]      mccormick3[6]  1
    u[7]      primal_lower0  957
    u[7]      primal_lower1  240
    u[7]      primal_lower2  500
    u[7]      primal_lower3  788
    u[7]      primal_lower4  112
    u[7]      primal_lower5  937
    u[7]      primal_lower6  678
    u[7]      primal_lower7  61
    u[7]      primal_lower8  211
    u[7]      primal_lower9  843
    u[7]      interdiction[7]  1
    u[7]      mccormick1[7]  -1
    u[7]      mccormick3[7]  1
    u[8]      primal_lower0  683
    u[8]      primal_lower1  376
    u[8]      primal_lower2  964
    u[8]      primal_lower3  300
    u[8]      primal_lower4  658
    u[8]      primal_lower5  367
    u[8]      primal_lower6  190
    u[8]      primal_lower7  241
    u[8]      primal_lower8  873
    u[8]      primal_lower9  287
    u[8]      interdiction[8]  1
    u[8]      mccormick1[8]  -1
    u[8]      mccormick3[8]  1
    u[9]      primal_lower0  830
    u[9]      primal_lower1  638
    u[9]      primal_lower2  562
    u[9]      primal_lower3  26
    u[9]      primal_lower4  505
    u[9]      primal_lower5  466
    u[9]      primal_lower6  44
    u[9]      primal_lower7  907
    u[9]      primal_lower8  796
    u[9]      primal_lower9  425
    u[9]      interdiction[9]  1
    u[9]      mccormick1[9]  -1
    u[9]      mccormick3[9]  1
    u[10]     primal_lower0  596
    u[10]     primal_lower1  822
    u[10]     primal_lower2  58
    u[10]     primal_lower3  562
    u[10]     primal_lower4  987
    u[10]     primal_lower5  640
    u[10]     primal_lower6  580
    u[10]     primal_lower7  263
    u[10]     primal_lower8  2
    u[10]     primal_lower9  493
    u[10]     interdiction[10]  1
    u[10]     mccormick1[10]  -1
    u[10]     mccormick3[10]  1
    u[11]     primal_lower0  266
    u[11]     primal_lower1  917
    u[11]     primal_lower2  681
    u[11]     primal_lower3  753
    u[11]     primal_lower4  789
    u[11]     primal_lower5  158
    u[11]     primal_lower6  947
    u[11]     primal_lower7  970
    u[11]     primal_lower8  1000
    u[11]     primal_lower9  64
    u[11]     interdiction[11]  1
    u[11]     mccormick1[11]  -1
    u[11]     mccormick3[11]  1
    u[12]     primal_lower0  372
    u[12]     primal_lower1  57
    u[12]     primal_lower2  613
    u[12]     primal_lower3  677
    u[12]     primal_lower4  875
    u[12]     primal_lower5  144
    u[12]     primal_lower6  847
    u[12]     primal_lower7  50
    u[12]     primal_lower8  834
    u[12]     primal_lower9  760
    u[12]     interdiction[12]  1
    u[12]     mccormick1[12]  -1
    u[12]     mccormick3[12]  1
    u[13]     primal_lower0  758
    u[13]     primal_lower1  670
    u[13]     primal_lower2  650
    u[13]     primal_lower3  626
    u[13]     primal_lower4  433
    u[13]     primal_lower5  786
    u[13]     primal_lower6  572
    u[13]     primal_lower7  667
    u[13]     primal_lower8  708
    u[13]     primal_lower9  857
    u[13]     interdiction[13]  1
    u[13]     mccormick1[13]  -1
    u[13]     mccormick3[13]  1
    u[14]     primal_lower0  926
    u[14]     primal_lower1  944
    u[14]     primal_lower2  756
    u[14]     primal_lower3  868
    u[14]     primal_lower4  893
    u[14]     primal_lower5  674
    u[14]     primal_lower6  422
    u[14]     primal_lower7  537
    u[14]     primal_lower8  484
    u[14]     primal_lower9  871
    u[14]     interdiction[14]  1
    u[14]     mccormick1[14]  -1
    u[14]     mccormick3[14]  1
    u[15]     primal_lower0  84
    u[15]     primal_lower1  560
    u[15]     primal_lower2  844
    u[15]     primal_lower3  676
    u[15]     primal_lower4  175
    u[15]     primal_lower5  472
    u[15]     primal_lower6  350
    u[15]     primal_lower7  789
    u[15]     primal_lower8  666
    u[15]     primal_lower9  939
    u[15]     interdiction[15]  1
    u[15]     mccormick1[15]  -1
    u[15]     mccormick3[15]  1
    u[16]     primal_lower0  404
    u[16]     primal_lower1  585
    u[16]     primal_lower2  277
    u[16]     primal_lower3  341
    u[16]     primal_lower4  19
    u[16]     primal_lower5  888
    u[16]     primal_lower6  983
    u[16]     primal_lower7  442
    u[16]     primal_lower8  938
    u[16]     primal_lower9  368
    u[16]     interdiction[16]  1
    u[16]     mccormick1[16]  -1
    u[16]     mccormick3[16]  1
    u[17]     primal_lower0  651
    u[17]     primal_lower1  787
    u[17]     primal_lower2  999
    u[17]     primal_lower3  743
    u[17]     primal_lower4  814
    u[17]     primal_lower5  255
    u[17]     primal_lower6  337
    u[17]     primal_lower7  168
    u[17]     primal_lower8  257
    u[17]     primal_lower9  382
    u[17]     interdiction[17]  1
    u[17]     mccormick1[17]  -1
    u[17]     mccormick3[17]  1
    u[18]     primal_lower0  149
    u[18]     primal_lower1  54
    u[18]     primal_lower2  698
    u[18]     primal_lower3  658
    u[18]     primal_lower4  76
    u[18]     primal_lower5  841
    u[18]     primal_lower6  388
    u[18]     primal_lower7  31
    u[18]     primal_lower8  747
    u[18]     primal_lower9  421
    u[18]     interdiction[18]  1
    u[18]     mccormick1[18]  -1
    u[18]     mccormick3[18]  1
    u[19]     primal_lower0  139
    u[19]     primal_lower1  39
    u[19]     primal_lower2  91
    u[19]     primal_lower3  579
    u[19]     primal_lower4  798
    u[19]     primal_lower5  183
    u[19]     primal_lower6  229
    u[19]     primal_lower7  76
    u[19]     primal_lower8  905
    u[19]     primal_lower9  866
    u[19]     interdiction[19]  1
    u[19]     mccormick1[19]  -1
    u[19]     mccormick3[19]  1
    z[0]      primal_upper  16
    z[0]      mccormick1[0]  1
    z[0]      mccormick2[0]  1
    z[0]      mccormick3[0]  -1
    z[1]      primal_upper  27
    z[1]      mccormick1[1]  1
    z[1]      mccormick2[1]  1
    z[1]      mccormick3[1]  -1
    z[2]      primal_upper  34
    z[2]      mccormick1[2]  1
    z[2]      mccormick2[2]  1
    z[2]      mccormick3[2]  -1
    z[3]      primal_upper  80
    z[3]      mccormick1[3]  1
    z[3]      mccormick2[3]  1
    z[3]      mccormick3[3]  -1
    z[4]      primal_upper  97
    z[4]      mccormick1[4]  1
    z[4]      mccormick2[4]  1
    z[4]      mccormick3[4]  -1
    z[5]      primal_upper  20
    z[5]      mccormick1[5]  1
    z[5]      mccormick2[5]  1
    z[5]      mccormick3[5]  -1
    z[6]      primal_upper  4
    z[6]      mccormick1[6]  1
    z[6]      mccormick2[6]  1
    z[6]      mccormick3[6]  -1
    z[7]      primal_upper  32
    z[7]      mccormick1[7]  1
    z[7]      mccormick2[7]  1
    z[7]      mccormick3[7]  -1
    z[8]      primal_upper  93
    z[8]      mccormick1[8]  1
    z[8]      mccormick2[8]  1
    z[8]      mccormick3[8]  -1
    z[9]      primal_upper  73
    z[9]      mccormick1[9]  1
    z[9]      mccormick2[9]  1
    z[9]      mccormick3[9]  -1
    z[10]     primal_upper  75
    z[10]     mccormick1[10]  1
    z[10]     mccormick2[10]  1
    z[10]     mccormick3[10]  -1
    z[11]     primal_upper  13
    z[11]     mccormick1[11]  1
    z[11]     mccormick2[11]  1
    z[11]     mccormick3[11]  -1
    z[12]     primal_upper  35
    z[12]     mccormick1[12]  1
    z[12]     mccormick2[12]  1
    z[12]     mccormick3[12]  -1
    z[13]     primal_upper  7
    z[13]     mccormick1[13]  1
    z[13]     mccormick2[13]  1
    z[13]     mccormick3[13]  -1
    z[14]     primal_upper  40
    z[14]     mccormick1[14]  1
    z[14]     mccormick2[14]  1
    z[14]     mccormick3[14]  -1
    z[15]     primal_upper  77
    z[15]     mccormick1[15]  1
    z[15]     mccormick2[15]  1
    z[15]     mccormick3[15]  -1
    z[16]     mccormick1[16]  1
    z[16]     mccormick2[16]  1
    z[16]     mccormick3[16]  -1
    z[17]     primal_upper  84
    z[17]     mccormick1[17]  1
    z[17]     mccormick2[17]  1
    z[17]     mccormick3[17]  -1
    z[18]     primal_upper  51
    z[18]     mccormick1[18]  1
    z[18]     mccormick2[18]  1
    z[18]     mccormick3[18]  -1
    z[19]     primal_upper  17
    z[19]     mccormick1[19]  1
    z[19]     mccormick2[19]  1
    z[19]     mccormick3[19]  -1
    MARKER    'MARKER'                 'INTEND'
RHS
    RHS1      primal_upper  2186
    RHS1      primal_lower0  957
    RHS1      primal_lower1  2618
    RHS1      primal_lower2  2666
    RHS1      primal_lower3  2590
    RHS1      primal_lower4  987
    RHS1      primal_lower5  2548
    RHS1      primal_lower6  4705
    RHS1      primal_lower7  4907
    RHS1      primal_lower8  3134
    RHS1      primal_lower9  2727
    RHS1      interdiction[0]  1
    RHS1      interdiction[1]  1
    RHS1      interdiction[2]  1
    RHS1      interdiction[3]  1
    RHS1      interdiction[4]  1
    RHS1      interdiction[5]  1
    RHS1      interdiction[6]  1
    RHS1      interdiction[7]  1
    RHS1      interdiction[8]  1
    RHS1      interdiction[9]  1
    RHS1      interdiction[10]  1
    RHS1      interdiction[11]  1
    RHS1      interdiction[12]  1
    RHS1      interdiction[13]  1
    RHS1      interdiction[14]  1
    RHS1      interdiction[15]  1
    RHS1      interdiction[16]  1
    RHS1      interdiction[17]  1
    RHS1      interdiction[18]  1
    RHS1      interdiction[19]  1
    RHS1      mccormick3[0]  1
    RHS1      mccormick3[1]  1
    RHS1      mccormick3[2]  1
    RHS1      mccormick3[3]  1
    RHS1      mccormick3[4]  1
    RHS1      mccormick3[5]  1
    RHS1      mccormick3[6]  1
    RHS1      mccormick3[7]  1
    RHS1      mccormick3[8]  1
    RHS1      mccormick3[9]  1
    RHS1      mccormick3[10]  1
    RHS1      mccormick3[11]  1
    RHS1      mccormick3[12]  1
    RHS1      mccormick3[13]  1
    RHS1      mccormick3[14]  1
    RHS1      mccormick3[15]  1
    RHS1      mccormick3[16]  1
    RHS1      mccormick3[17]  1
    RHS1      mccormick3[18]  1
    RHS1      mccormick3[19]  1
BOUNDS
 BV BND1      x[0]    
 BV BND1      x[1]    
 BV BND1      x[2]    
 BV BND1      x[3]    
 BV BND1      x[4]    
 BV BND1      x[5]    
 BV BND1      x[6]    
 BV BND1      x[7]    
 BV BND1      x[8]    
 BV BND1      x[9]    
 BV BND1      x[10]   
 BV BND1      x[11]   
 BV BND1      x[12]   
 BV BND1      x[13]   
 BV BND1      x[14]   
 BV BND1      x[15]   
 BV BND1      x[16]   
 BV BND1      x[17]   
 BV BND1      x[18]   
 BV BND1      x[19]   
 BV BND1      y[0]    
 BV BND1      y[1]    
 BV BND1      y[2]    
 BV BND1      y[3]    
 BV BND1      y[4]    
 BV BND1      y[5]    
 BV BND1      y[6]    
 BV BND1      y[7]    
 BV BND1      y[8]    
 BV BND1      y[9]    
 BV BND1      y[10]   
 BV BND1      y[11]   
 BV BND1      y[12]   
 BV BND1      y[13]   
 BV BND1      y[14]   
 BV BND1      y[15]   
 BV BND1      y[16]   
 BV BND1      y[17]   
 BV BND1      y[18]   
 BV BND1      y[19]   
 BV BND1      u[0]    
 BV BND1      u[1]    
 BV BND1      u[2]    
 BV BND1      u[3]    
 BV BND1      u[4]    
 BV BND1      u[5]    
 BV BND1      u[6]    
 BV BND1      u[7]    
 BV BND1      u[8]    
 BV BND1      u[9]    
 BV BND1      u[10]   
 BV BND1      u[11]   
 BV BND1      u[12]   
 BV BND1      u[13]   
 BV BND1      u[14]   
 BV BND1      u[15]   
 BV BND1      u[16]   
 BV BND1      u[17]   
 BV BND1      u[18]   
 BV BND1      u[19]   
 BV BND1      z[0]    
 BV BND1      z[1]    
 BV BND1      z[2]    
 BV BND1      z[3]    
 BV BND1      z[4]    
 BV BND1      z[5]    
 BV BND1      z[6]    
 BV BND1      z[7]    
 BV BND1      z[8]    
 BV BND1      z[9]    
 BV BND1      z[10]   
 BV BND1      z[11]   
 BV BND1      z[12]   
 BV BND1      z[13]   
 BV BND1      z[14]   
 BV BND1      z[15]   
 BV BND1      z[16]   
 BV BND1      z[17]   
 BV BND1      z[18]   
 BV BND1      z[19]   
ENDATA
